64
1 5 2 4 5 6 31
2 8 1 3 4 5 6 21 23 29
3 4 2 5 15 16
4 3 1 2 6
5 3 1 2 3
6 5 1 2 4 21 31
7 3 10 12 17
8 5 11 22 26 27 61
9 5 11 15 16 25 29
10 6 7 12 13 14 16 17
11 6 8 9 13 16 25 26
12 2 7 10
13 3 10 11 16
14 2 10 17
15 3 3 9 16
16 6 3 9 10 11 13 15
17 3 7 10 14
18 6 19 20 24 25 26 30
19 8 18 21 23 24 25 28 37 39
20 6 18 22 26 27 30 42
21 6 2 6 19 23 31 39
22 7 8 20 27 42 43 61 63
23 5 2 19 21 25 29
24 6 18 19 28 30 50 52
25 7 9 11 18 19 23 26 29
26 6 8 11 18 20 25 27
27 4 8 20 22 26
28 6 19 24 34 36 37 50
29 4 2 9 23 25
30 6 18 20 24 41 42 52
31 5 1 6 21 35 39
32 3 34 36 38
33 5 34 35 37 39 40
34 5 28 32 33 36 37
35 4 31 33 39 40
36 7 28 32 34 38 48 50 51
37 5 19 28 33 34 39
38 2 32 36
39 6 19 21 31 33 35 37
40 2 33 35
41 7 30 42 44 45 52 54 55
42 6 20 22 30 41 43 44
43 3 22 42 63
44 2 41 42
45 6 41 46 47 48 52 54
46 4 45 47 53 54
47 5 45 46 48 49 51
48 6 36 45 47 50 51 52
49 2 47 51
50 5 24 28 36 48 52
51 4 36 47 48 49
52 6 24 30 41 45 48 50
53 6 46 54 57 58 59 60
54 6 41 45 46 53 55 59
55 4 41 54 56 59
56 3 55 57 59
57 4 53 56 58 59
58 3 53 57 60
59 5 53 54 55 56 57
60 2 53 58
61 5 8 22 62 63 64
62 2 61 64
63 4 22 43 61 64
64 3 61 62 63
